Water Network: d13_modena.dat
*******************************************************************************

-------------------------------- Solving with gurobi --------------------------
min_demand: 0
max_demand: 0.00947
max_flow: 0.4069399999999997
Gurobi 11.0.2: Set parameter LogToConsole to value 1
  tech:outlev = 1
Set parameter Presolve to value 0
  pre:solve = 0
Set parameter TimeLimit to value 3600
  lim:time = 3600
Set parameter NumericFocus to value 1
  alg:numericfocus = 1
Set parameter InfUnbdInfo to value 1
Gurobi Optimizer version 11.0.2 build v11.0.2rc0 (linux64 - "Ubuntu 25.04")

CPU model: 11th Gen Intel(R) Core(TM) i5-1135G7 @ 2.40GHz, instruction set [SSE2|AVX|AVX2|AVX512]
Thread count: 4 physical cores, 8 logical processors, using up to 8 threads

Optimize a model with 585 rows, 6608 columns and 4751 nonzeros
Model fingerprint: 0x7c9b91f2
Model has 1585 quadratic constraints
Model has 634 general constraints
Variable types: 6608 continuous, 0 integer (0 binary)
Coefficient statistics:
  Matrix range     [1e+00, 1e+00]
  QMatrix range    [4e-03, 1e+02]
  QLMatrix range   [1e+00, 1e+00]
  Objective range  [3e+01, 4e+02]
  Bounds range     [9e-12, 5e+10]
  RHS range        [1e-05, 1e+03]
  QRHS range       [9e-12, 7e+01]
Warning: Model contains large bounds
Warning: Model contains variables with very large bounds participating
         in product terms.
         Consider bounding these variables or reformulating the model.


Solving non-convex MIQCP

Variable types: 19605 continuous, 0 integer (0 binary)

Root simplex log...

Iteration    Objective       Primal Inf.    Dual Inf.      Time
   21014    2.6658257e+06   7.335166e+04   3.235762e+07      5s
Warning: switch to quad precision
   24074    2.0493687e+06   0.000000e+00   2.272578e+04     10s
   24881    1.9890296e+06   0.000000e+00   0.000000e+00     11s

Root relaxation: objective 1.989030e+06, 24881 iterations, 9.84 seconds (1.41 work units)

    Nodes    |    Current Node    |     Objective Bounds      |     Work
 Expl Unexpl |  Obj  Depth IntInf | Incumbent    BestBd   Gap | It/Node Time

     0     0 1989029.61    0 2064          - 1989029.61      -     -   12s
     0     0 1989029.61    0 2089          - 1989029.61      -     -   13s
     0     0 1989029.61    0 2091          - 1989029.61      -     -   13s
     0     0 1989029.61    0 2028          - 1989029.61      -     -   16s
     0     0 1989029.61    0 2028          - 1989029.61      -     -   18s
     0     0 1989029.61    0 2048          - 1989029.61      -     -   18s
     0     0 1989029.61    0 1605          - 1989029.61      -     -   21s
     0     0 1989029.61    0 1602          - 1989029.61      -     -   21s
     0     0 1989029.61    0 1631          - 1989029.61      -     -   24s
     0     0 1989029.61    0 1632          - 1989029.61      -     -   24s
     0     0 1989029.61    0 1631          - 1989029.61      -     -   25s
     0     0 1989029.61    0 1930          - 1989029.61      -     -   26s
     0     0 1989029.61    0 1628          - 1989029.61      -     -   27s
     0     0 1989029.61    0 1620          - 1989029.61      -     -   28s
     0     0 1989029.61    0 1620          - 1989029.61      -     -   30s
     0     2 1989029.61    0 1712          - 1989029.61      -     -   34s
     1     4 1989029.61    1 1628          - 1989029.61      -  1170   35s
    15    18 1989029.61    4 1606          - 1989029.61      -   485   40s
    27    26 1989029.61    5 1604          - 1989029.61      -   621   46s
    35    38 1989029.61    6 1613          - 1989029.61      -   498   50s
    43    51 1989029.61    7 1608          - 1989029.61      -   431   55s
    60    78 1989029.61    9 1883          - 1989029.61      -   343   63s
    87   125 1989029.61   12 1588          - 1989029.61      -   324   79s
   136   206 1989029.61   19 1539          - 1989029.61      -   300  181s
   229   345 1989029.61   30 1528          - 1989029.61      -   322  300s
   406   464 1989029.61   32 1486          - 1989029.61      -   309  559s
   605   587 infeasible   41               - 1989029.61      -   298  754s
   846   706 1989029.61  108 1524          - 1989029.61      -   306  952s
  1141   865 1989029.61  168 1511          - 1989029.61      -   280 1284s
  1444   999 infeasible  170               - 1989029.61      -   289 1541s
  1714  1134 1989029.61   83 1741          - 1989029.61      -   287 1817s
  1944  1136 1989029.61  115    0          - 1989029.61      -   293 1826s
  1947  1138 1989029.61   42    0          - 1989029.61      -   293 1830s
  1953  1142 1989029.61   88    0          - 1989029.61      -   292 1836s
  1955  1144 1989029.61   19    0          - 1989029.61      -   292 1855s
  1957  1148 1989029.61   15 1568          - 1989029.61      -   296 1879s
  1959  1151 1989029.61   16 1843          - 1989029.61      -   296 1881s
  1971  1155 1989029.61   18 1547          - 1989029.61      -   295 1885s
  1983  1160 1989029.61   19 1544          - 1989029.61      -   294 1890s
  2002  1171 1989029.61   21 1532          - 1989029.61      -   291 1897s
  2011  1182 1989029.61   22 1518          - 1989029.61      -   290 1900s
  2025  1192 1989029.61   24 1530          - 1989029.61      -   289 1910s
  2058  1206 1989029.61   26 1520          - 1989029.61      -   285 1922s
  2119  1219 1989029.61   34 1504          - 1989029.61      -   278 1940s
  2220  1224 infeasible   48               - 1989029.61      -   267 1968s
  2369  1254 infeasible   63               - 1989029.61      -   254 2003s
  2520  1316 1989029.61   82 1472          - 1989029.61      -   242 2050s
  2739  1339 1989029.61  108 1474          - 1989029.61      -   227 2095s
  2981  1336 1989029.61  141 1456          - 1989029.61      -   216 2140s
  3264  1291 1989029.61  179 1441          - 1989029.61      -   200 2184s
  3426  1337 1989029.61  206 1478          - 1989029.61      -   194 2238s
  3706  1317 1989029.61  236 1473          - 1989029.61      -   188 2280s
  3953  1279 infeasible  262               - 1989029.61      -   189 2340s
  4163  1302 1995059.52  282 1462          - 1989029.61      -   189 2399s
  4510  1334 1995059.52  324 1378          - 1989029.61      -   183 2455s
  4808  1362 infeasible  359               - 1989029.61      -   179 2516s
  5109  1334 1989029.61   38 1530          - 1989029.61      -   175 2585s
  5290  1395 1989029.61   61 1514          - 1989029.61      -   173 2660s
